WARNING: for repeatability, setting FPU to use double precision
============================[ Problem Statistics ]=============================
|                                                                             |
|  Number of variables:         17985                                         |
|  Number of clauses:           47464                                         |
|  Parse time:                   0.01 s                                       |
|                                                                             |
============================[ Search Statistics ]==============================
| Conflicts |          ORIGINAL         |          LEARNT          | Progress |
|           |    Vars  Clauses Literals |    Limit  Clauses Lit/Cl |          |
===============================================================================
|       100 |   13935    43871   101724 |    16086       83      3 | 22.519 % |
|       250 |   12998    37126    86574 |    17694      180      4 | 27.729 % |
|       475 |   12644    36578    85350 |    19464      384      5 | 29.697 % |
|       812 |   11665    32875    76935 |    21410      586      6 | 35.141 % |
===============================================================================
restarts              : 7
conflicts             : 1106           (11060 /sec)
decisions             : 15046          (0.00 % random) (150460 /sec)
propagations          : 1412618        (14126180 /sec)
conflict literals     : 5152           (14.46 % deleted)
Memory used           : 22.00 MB
CPU time              : 0.1 s

SATISFIABLE
